27481
0 1 0 0 1 0 0 1 1 0 0 0 0 0 0 0 1 0 1 0 0 1 0 1 1 1 1 0 0 1 
18 4 21 24 21 25 21 18 18 24 4 26 8 1 26 18 1 8 16 24 18 16 1 24 23 18 24 26 29 21 4 4 4 16 18 4 26 8 24 16 18 8 4 4 8 4 8 21 26 26 24 16 21 16 8 4 7 26 18 7 29 24 7 8 8 25 23 26 4 25 7 25 4 26 23 1 8 23 8 16 23 23 26 7 29 8 4 23 24 7 18 4 7 25 23 1 18 25 23 25 26 21 25 7 4 24 4 24 16 1 26 4 18 25 25 8 18 7 23 8 26 25 24 4 26 16 21 7 26 23 18 16 25 8 1 26 1 1 24 23 25 18 25 25 25 23 16 16 18 25 24 23 23 24 8 18 21 16 8 1 1 24 23 21 23 24 1 29 1 21 1 8 26 26 26 21 24 8 29 8 21 21 21 4 25 8 18 23 24 21 21 21 4 4 7 25 7 21 23 26 
